c Result of efficient AIG-to-CNF conversion using package CNF
p cnf 53 143
-2 3 19 0
-2 -3 -19 0
2 -3 19 0
2 3 -19 0
-3 -4 -16 0
-3 4 16 0
3 4 -16 0
3 -4 16 0
-4 -5 -15 0
-4 5 15 0
4 5 -15 0
4 -5 15 0
-5 6 11 0
-5 -6 -11 0
5 -6 11 0
5 6 -11 0
-6 -7 -10 0
-6 7 10 0
6 7 -10 0
6 -7 10 0
-7 -8 -9 0
-7 8 9 0
7 8 -9 0
7 -8 9 0
8 -41 -47 0
-8 41 0
-8 47 0
9 -39 -46 0
-9 39 0
-9 46 0
10 -44 -50 0
-10 44 0
-10 50 0
-11 12 14 0
-11 13 14 0
-11 12 13 0
11 -12 -13 0
11 -13 -14 0
11 -12 -14 0
12 -39 -47 0
-12 39 0
-12 47 0
13 -44 -46 0
-13 44 0
-13 46 0
14 -49 -50 0
-14 49 0
-14 50 0
15 -43 -49 0
-15 43 0
-15 49 0
16 -14 17 -18 0
16 14 -17 -18 0
-16 18 0
-16 -14 -17 0
-16 14 17 0
-17 -12 -13 0
-17 12 13 0
17 12 -13 0
17 -12 13 0
18 -44 -46 -47 -49 0
-18 49 0
-18 44 0
-18 47 0
-18 46 0
-19 20 33 0
-19 -20 -33 0
19 -20 33 0
19 20 -33 0
-20 -21 -29 0
-20 21 29 0
20 21 -29 0
20 -21 29 0
-21 -22 -25 0
-21 22 25 0
21 22 -25 0
21 -22 25 0
22 -44 23 0
22 -23 -24 0
-22 44 23 0
-22 -23 24 0
-23 43 -49 0
-23 49 50 0
23 -43 -49 0
23 49 -50 0
24 44 -49 0
-24 -44 0
-24 49 0
25 -26 -27 0
-25 26 0
-25 27 0
26 39 -41 0
26 -41 44 0
-26 41 0
-26 -39 -44 0
27 -24 -28 0
27 -44 28 0
-27 24 -28 0
-27 44 28 0
-28 -49 50 0
-28 46 49 0
28 -49 -50 0
28 -46 49 0
29 -26 30 0
29 -30 -32 0
-29 26 30 0
-29 -30 32 0
-30 47 31 0
-30 46 -31 0
30 -47 31 0
30 -46 -31 0
31 39 -44 0
31 -39 44 0
-31 -39 -44 0
-31 39 44 0
32 -39 41 0
32 41 -44 0
-32 -41 0
-32 39 44 0
-33 35 37 0
-33 34 35 0
-33 34 37 0
33 -34 -35 0
33 -35 -37 0
33 -34 -37 0
-34 -26 -27 0
-34 26 27 0
34 26 -27 0
34 -26 27 0
35 -32 -36 0
35 -26 36 0
-35 26 36 0
-35 32 -36 0
36 -47 -31 0
-36 47 0
-36 31 0
37 -44 46 47 0
37 -44 47 49 0
-37 44 0
-37 -47 0
-37 -46 -49 0
-53 0
2 0

